50	100	100	100
3	24	6
8	12	9
18	13	7
7	5	29
34	12	13
33	25	34
17	33	14
23	24	31
6	28	23
12	26	20
21	1	1
31	27	29
13	10	26
17	10	2
21	32	31
24	6	6
13	29	31
21	32	14
31	26	5
7	9	19
4	31	21
24	8	11
13	25	2
1	34	13
15	24	3
24	15	28
34	27	14
18	20	33
11	8	19
2	9	16
24	20	25
14	24	30
4	29	16
23	15	31
28	14	21
21	30	31
20	28	15
11	11	6
18	21	10
11	19	17
2	19	28
29	2	33
4	33	18
24	7	3
12	31	21
27	18	4
19	25	28
7	30	22
16	10	28
10	25	34
